unsat
(define-fun InvF ((x Int) (y Int) (z1 Int) (z2 Int) (z3 Int)) Bool (>= x 1))
0.02user 0.00system 0:00.02elapsed 100%CPU (0avgtext+0avgdata 24956maxresident)k
0inputs+8outputs (0major+1027minor)pagefaults 0swaps
